; sanic :: corpus-study/repo_src/sanic/sanic/server/websockets/frame.py :: QUEUE 'WebsocketFrameAssembler.chunks_queue' :: structured encoding (verdict: unsat)
; Generated by snf-pipeline (encoder.py) -- run with any
; SMT-LIB2-compliant solver, e.g. `z3 sanic__corpus-study_repo_src_sanic_sanic_server_websockets_frame.py__WebsocketFrameAssembler.chunks_queue__structured.smt2`
; benchmark generated from python API
(set-info :status unknown)
(declare-fun order_0 () Int)
(assert
 (>= order_0 1))
(assert
 (<= order_0 1))
(assert
 (and true))
(assert
 false)
(check-sat)
